c Result of efficient AIG-to-CNF conversion using package CNF
p cnf 430 1506
2 3 -245 0
2 425 3 -14 0
-2 -3 0
-2 -425 245 0
-2 14 245 0
-3 4 10 12 13 0
3 -13 0
3 -4 0
3 -12 0
3 -10 0
-4 422 423 5 7 0
4 -422 0
4 -7 0
4 -5 0
4 -423 0
-5 414 420 421 6 0
5 -6 0
5 -421 0
5 -414 0
5 -420 0
-6 418 419 424 0
6 -418 0
6 -424 0
6 -419 0
-7 410 411 8 9 0
7 -410 0
7 -9 0
7 -8 0
7 -411 0
-8 415 416 417 0
8 -415 0
8 -417 0
8 -416 0
-9 406 407 412 413 0
9 -413 0
9 -412 0
9 -406 0
9 -407 0
-10 404 408 409 11 0
10 -11 0
10 -409 0
10 -404 0
10 -408 0
-11 402 403 0
11 -402 0
11 -403 0
-12 398 405 0
12 -398 0
12 -405 0
-13 399 400 401 0
13 -399 0
13 -401 0
13 -400 0
-14 15 213 214 217 0
-14 15 -213 -214 217 0
14 -217 0
14 -213 214 0
14 -15 0
14 213 -214 0
-15 -426 16 201 0
-15 16 172 201 0
15 -16 0
15 -201 0
15 426 -172 0
-16 -19 169 0
-16 17 -167 0
-16 -19 -167 0
-16 17 169 0
16 167 -169 0
16 -17 19 0
17 -378 18 0
17 -378 426 0
-17 378 0
-17 -426 -18 0
18 -427 -428 0
18 -427 -429 0
-18 427 0
-18 428 429 0
19 426 -20 0
19 -426 -131 0
-19 -426 131 0
-19 426 20 0
20 427 -21 0
20 -427 -93 0
-20 -427 93 0
-20 427 21 0
21 428 -22 0
21 -428 -66 0
-21 -428 66 0
-21 428 22 0
22 429 -23 0
22 -429 -44 0
-22 -429 44 0
-22 429 23 0
23 -425 3 -39 0
23 425 3 -24 0
-23 -3 0
-23 -425 39 0
-23 425 24 0
24 426 -25 0
24 -426 -32 0
-24 -426 32 0
-24 426 25 0
25 427 -26 0
25 -427 -29 0
-25 -427 29 0
-25 427 26 0
26 428 -27 0
26 -428 -28 0
-26 -428 28 0
-26 428 27 0
27 -379 -429 0
27 -378 429 0
-27 378 429 0
-27 379 -429 0
28 -381 -429 0
28 -380 429 0
-28 380 429 0
-28 381 -429 0
29 428 -30 0
29 -428 -31 0
-29 -428 31 0
-29 428 30 0
30 -383 -429 0
30 -382 429 0
-30 382 429 0
-30 383 -429 0
31 -385 -429 0
31 -384 429 0
-31 384 429 0
-31 385 -429 0
32 427 -33 0
32 -427 -36 0
-32 -427 36 0
-32 427 33 0
33 428 -34 0
33 -428 -35 0
-33 -428 35 0
-33 428 34 0
34 -387 -429 0
34 -386 429 0
-34 386 429 0
-34 387 -429 0
35 -389 -429 0
35 -388 429 0
-35 388 429 0
-35 389 -429 0
36 428 -37 0
36 -428 -38 0
-36 -428 38 0
-36 428 37 0
37 -391 -429 0
37 -390 429 0
-37 390 429 0
-37 391 -429 0
38 -393 -429 0
38 -392 429 0
-38 392 429 0
-38 393 -429 0
39 426 -40 0
-39 -426 0
-39 40 0
40 427 -41 0
-40 -427 0
-40 41 0
41 428 -42 0
41 -428 -43 0
-41 -428 43 0
-41 428 42 0
42 -395 -429 0
42 -394 429 0
-42 394 429 0
-42 395 -429 0
43 -397 -429 0
43 -396 429 0
-43 396 429 0
-43 397 -429 0
44 -425 3 -60 0
44 425 3 -45 0
-44 -3 0
-44 -425 60 0
-44 425 45 0
45 426 -46 0
45 -426 -53 0
-45 -426 53 0
-45 426 46 0
46 427 -47 0
46 -427 -50 0
-46 -427 50 0
-46 427 47 0
47 428 -48 0
47 -428 -49 0
-47 -428 49 0
-47 428 48 0
48 -378 -429 0
48 -377 429 0
-48 377 429 0
-48 378 -429 0
49 -380 -429 0
49 -379 429 0
-49 379 429 0
-49 380 -429 0
50 428 -51 0
50 -428 -52 0
-50 -428 52 0
-50 428 51 0
51 -382 -429 0
51 -381 429 0
-51 381 429 0
-51 382 -429 0
52 -384 -429 0
52 -383 429 0
-52 383 429 0
-52 384 -429 0
53 427 -54 0
53 -427 -57 0
-53 -427 57 0
-53 427 54 0
54 428 -55 0
54 -428 -56 0
-54 -428 56 0
-54 428 55 0
55 -386 -429 0
55 -385 429 0
-55 385 429 0
-55 386 -429 0
56 -388 -429 0
56 -387 429 0
-56 387 429 0
-56 388 -429 0
57 428 -58 0
57 -428 -59 0
-57 -428 59 0
-57 428 58 0
58 -390 -429 0
58 -389 429 0
-58 389 429 0
-58 390 -429 0
59 -392 -429 0
59 -391 429 0
-59 391 429 0
-59 392 -429 0
60 426 -61 0
-60 -426 0
-60 61 0
61 427 -62 0
61 -427 -65 0
-61 -427 65 0
-61 427 62 0
62 428 -63 0
62 -428 -64 0
-62 -428 64 0
-62 428 63 0
63 -394 -429 0
63 -393 429 0
-63 393 429 0
-63 394 -429 0
64 -396 -429 0
64 -395 429 0
-64 395 429 0
-64 396 -429 0
65 -397 428 429 0
-65 397 0
-65 -429 0
-65 -428 0
66 429 -67 0
66 -429 -80 0
-66 -429 80 0
-66 429 67 0
67 -425 3 -76 0
67 425 3 -68 0
-67 -3 0
-67 -425 76 0
-67 425 68 0
68 426 -69 0
68 -426 -73 0
-68 -426 73 0
-68 426 69 0
69 427 -70 0
69 -427 -72 0
-69 -427 72 0
-69 427 70 0
70 -428 -27 0
70 428 -71 0
-70 428 71 0
-70 -428 27 0
71 -377 -429 0
71 -376 429 0
-71 376 429 0
-71 377 -429 0
72 428 -28 0
72 -428 -30 0
-72 -428 30 0
-72 428 28 0
73 427 -74 0
73 -427 -75 0
-73 -427 75 0
-73 427 74 0
74 428 -31 0
74 -428 -34 0
-74 -428 34 0
-74 428 31 0
75 428 -35 0
75 -428 -37 0
-75 -428 37 0
-75 428 35 0
76 426 -77 0
-76 -426 0
-76 77 0
77 427 -78 0
77 -427 -79 0
-77 -427 79 0
-77 427 78 0
78 428 -38 0
78 -428 -42 0
-78 -428 42 0
-78 428 38 0
79 -396 428 429 0
79 -397 428 -429 0
-79 -428 0
-79 397 -429 0
-79 396 429 0
80 -425 3 -89 0
80 425 3 -81 0
-80 -3 0
-80 -425 89 0
-80 425 81 0
81 426 -82 0
81 -426 -86 0
-81 -426 86 0
-81 426 82 0
82 427 -83 0
82 -427 -85 0
-82 -427 85 0
-82 427 83 0
83 -428 -48 0
83 428 -84 0
-83 428 84 0
-83 -428 48 0
84 -376 -429 0
84 -375 429 0
-84 375 429 0
-84 376 -429 0
85 428 -49 0
85 -428 -51 0
-85 -428 51 0
-85 428 49 0
86 427 -87 0
86 -427 -88 0
-86 -427 88 0
-86 427 87 0
87 428 -52 0
87 -428 -55 0
-87 -428 55 0
-87 428 52 0
88 428 -56 0
88 -428 -58 0
-88 -428 58 0
-88 428 56 0
89 426 -90 0
-89 -426 0
-89 90 0
90 427 -91 0
90 -427 -92 0
-90 -427 92 0
-90 427 91 0
91 428 -59 0
91 -428 -63 0
-91 -428 63 0
-91 428 59 0
92 428 -64 0
92 -397 -428 429 0
-92 428 64 0
-92 -428 -429 0
-92 397 -428 0
93 428 -94 0
93 -428 -112 0
-93 -428 112 0
-93 428 94 0
94 429 -95 0
94 -429 -103 0
-94 -429 103 0
-94 429 95 0
95 -425 3 -101 0
95 425 3 -96 0
-95 -3 0
-95 -425 101 0
-95 425 96 0
96 426 -97 0
96 -426 -100 0
-96 -426 100 0
-96 426 97 0
97 -427 -26 0
97 427 -98 0
-97 427 98 0
-97 -427 26 0
98 -428 -71 0
98 428 -99 0
-98 428 99 0
-98 -428 71 0
99 -375 -429 0
99 -374 429 0
-99 374 429 0
-99 375 -429 0
100 427 -29 0
100 -427 -33 0
-100 -427 33 0
-100 427 29 0
101 426 -102 0
-101 -426 0
-101 102 0
102 427 -36 0
102 -427 -41 0
-102 -427 41 0
-102 427 36 0
103 -425 3 -109 0
103 425 3 -104 0
-103 -3 0
-103 -425 109 0
-103 425 104 0
-104 426 105 0
-104 -426 108 0
104 -426 -108 0
104 426 -105 0
-105 427 106 0
-105 -427 47 0
105 -427 -47 0
105 427 -106 0
106 -428 -84 0
106 428 -107 0
-106 428 107 0
-106 -428 84 0
107 -374 -429 0
107 -373 429 0
-107 373 429 0
-107 374 -429 0
108 427 -50 0
108 -427 -54 0
-108 -427 54 0
-108 427 50 0
109 426 -110 0
109 -426 -111 0
-109 -426 111 0
-109 426 110 0
110 427 -57 0
110 -427 -62 0
-110 -427 62 0
-110 427 57 0
111 -397 427 428 429 0
-111 -429 0
-111 -428 0
-111 397 0
-111 -427 0
112 429 -113 0
112 -429 -122 0
-112 -429 122 0
-112 429 113 0
113 -425 3 -119 0
113 425 3 -114 0
-113 -3 0
-113 -425 119 0
-113 425 114 0
-114 426 115 0
-114 -426 118 0
114 -426 -118 0
114 426 -115 0
-115 427 116 0
-115 -427 70 0
115 -427 -70 0
115 427 -116 0
116 -428 -99 0
116 428 -117 0
-116 428 117 0
-116 -428 99 0
117 -373 -429 0
117 -372 429 0
-117 372 429 0
-117 373 -429 0
118 427 -72 0
118 -427 -74 0
-118 -427 74 0
-118 427 72 0
119 426 -120 0
119 -426 -121 0
-119 -426 121 0
-119 426 120 0
120 427 -75 0
120 -427 -78 0
-120 -427 78 0
-120 427 75 0
121 427 -79 0
-121 -427 0
-121 79 0
122 -425 3 -128 0
122 425 3 -123 0
-122 -3 0
-122 -425 128 0
-122 425 123 0
-123 426 124 0
-123 -426 127 0
123 -426 -127 0
123 426 -124 0
-124 427 125 0
-124 -427 83 0
124 -427 -83 0
124 427 -125 0
125 -428 -107 0
125 428 -126 0
-125 428 126 0
-125 -428 107 0
126 -372 -429 0
126 -371 429 0
-126 371 429 0
-126 372 -429 0
127 427 -85 0
127 -427 -87 0
-127 -427 87 0
-127 427 85 0
128 426 -129 0
128 -426 -130 0
-128 -426 130 0
-128 426 129 0
129 427 -88 0
129 -427 -91 0
-129 -427 91 0
-129 427 88 0
130 427 -92 0
-130 -427 0
-130 92 0
131 427 -132 0
131 -427 -159 0
-131 -427 159 0
-131 427 132 0
132 428 -133 0
132 -428 -146 0
-132 -428 146 0
-132 428 133 0
133 429 -134 0
133 -429 -140 0
-133 -429 140 0
-133 429 134 0
134 -425 3 -139 0
134 425 3 -135 0
-134 -3 0
-134 -425 139 0
-134 425 135 0
-135 -426 25 0
-135 426 136 0
135 -426 -25 0
135 426 -136 0
-136 427 137 0
-136 -427 98 0
136 -427 -98 0
136 427 -137 0
137 -428 -117 0
137 428 -138 0
-137 428 138 0
-137 -428 117 0
138 -371 -429 0
138 -370 429 0
-138 370 429 0
-138 371 -429 0
139 426 -32 0
139 -426 -40 0
-139 -426 40 0
-139 426 32 0
140 -425 3 -145 0
140 425 3 -141 0
-140 -3 0
-140 -425 145 0
-140 425 141 0
-141 -426 46 0
-141 426 142 0
141 -426 -46 0
141 426 -142 0
-142 -427 106 0
-142 427 143 0
142 -427 -106 0
142 427 -143 0
-143 428 144 0
-143 -428 126 0
143 -428 -126 0
143 428 -144 0
144 -370 -429 0
144 -369 429 0
-144 369 429 0
-144 370 -429 0
145 426 -53 0
145 -426 -61 0
-145 -426 61 0
-145 426 53 0
146 429 -147 0
146 -429 -153 0
-146 -429 153 0
-146 429 147 0
147 -425 3 -152 0
147 425 3 -148 0
-147 -3 0
-147 -425 152 0
-147 425 148 0
-148 -426 69 0
-148 426 149 0
148 -426 -69 0
148 426 -149 0
-149 -427 116 0
-149 427 150 0
149 -427 -116 0
149 427 -150 0
-150 428 151 0
-150 -428 138 0
150 -428 -138 0
150 428 -151 0
151 -369 -429 0
151 -368 429 0
-151 368 429 0
-151 369 -429 0
152 426 -73 0
152 -426 -77 0
-152 -426 77 0
-152 426 73 0
153 -425 3 -158 0
153 425 3 -154 0
-153 -3 0
-153 -425 158 0
-153 425 154 0
-154 -426 82 0
-154 426 155 0
154 -426 -82 0
154 426 -155 0
-155 -427 125 0
-155 427 156 0
155 -427 -125 0
155 427 -156 0
-156 428 157 0
-156 -428 144 0
156 -428 -144 0
156 428 -157 0
157 -368 -429 0
157 -367 429 0
-157 367 429 0
-157 368 -429 0
158 426 -86 0
158 -426 -90 0
-158 -426 90 0
-158 426 86 0
159 428 -160 0
-159 -428 0
-159 160 0
160 429 -161 0
-160 -429 0
-160 161 0
161 -425 3 -166 0
161 425 3 -162 0
-161 -3 0
-161 -425 166 0
-161 425 162 0
-162 -426 97 0
-162 426 163 0
162 -426 -97 0
162 426 -163 0
-163 -427 137 0
-163 427 164 0
163 -427 -137 0
163 427 -164 0
-164 428 165 0
-164 -428 151 0
164 -428 -151 0
164 428 -165 0
165 -367 -429 0
165 -366 429 0
-165 366 429 0
-165 367 -429 0
166 426 -100 0
166 -426 -102 0
-166 -426 102 0
-166 426 100 0
167 -374 168 0
167 -374 426 0
-167 374 0
-167 -426 -168 0
-168 427 428 429 0
168 -427 0
168 -429 0
168 -428 0
169 426 -170 0
169 -426 -171 0
-169 -426 171 0
-169 426 170 0
170 427 -93 0
170 -427 -132 0
-170 -427 132 0
-170 427 93 0
171 427 -159 0
-171 -427 0
-171 159 0
-172 173 175 178 193 0
-172 -173 -175 178 193 0
172 -193 0
172 -173 175 0
172 -178 0
172 173 -175 0
173 -372 174 0
-173 372 0
-173 -174 0
174 -427 -428 -429 0
-174 427 0
-174 428 0
-174 429 0
175 427 -176 0
175 -427 -177 0
-175 -427 177 0
-175 427 176 0
176 428 -112 0
176 -428 -133 0
-176 -428 133 0
-176 428 112 0
177 428 -146 0
177 -428 -160 0
-177 -428 160 0
-177 428 146 0
-178 -373 186 0
-178 179 186 0
178 -186 0
178 373 -179 0
179 427 -180 0
179 -427 -183 0
-179 -427 183 0
-179 427 180 0
180 428 -181 0
180 -428 -182 0
-180 -428 182 0
-180 428 181 0
181 429 -103 0
181 -429 -113 0
-181 -429 113 0
-181 429 103 0
182 429 -122 0
182 -429 -134 0
-182 -429 134 0
-182 429 122 0
183 428 -184 0
183 -428 -185 0
-183 -428 185 0
-183 428 184 0
184 429 -140 0
184 -429 -147 0
-184 -429 147 0
-184 429 140 0
185 429 -153 0
185 -429 -161 0
-185 -429 161 0
-185 429 153 0
-186 -131 190 0
-186 187 -188 0
-186 187 190 0
-186 -131 -188 0
186 131 -187 0
186 188 -190 0
187 -370 18 0
-187 370 0
-187 -18 0
188 -371 189 0
-188 371 0
-188 -189 0
189 -427 -428 0
-189 427 0
-189 428 0
190 427 -191 0
190 -427 -192 0
-190 -427 192 0
-190 427 191 0
191 428 -182 0
191 -428 -184 0
-191 -428 184 0
-191 428 182 0
192 428 -185 0
-192 -428 0
-192 185 0
-193 131 194 200 0
-193 -187 194 200 0
193 -200 0
193 -194 0
193 -131 187 0
-194 371 195 0
-194 -189 195 0
-194 -190 195 0
194 -195 0
194 -371 189 190 0
-195 -171 -196 -198 0
-195 171 196 197 0
-195 171 196 -198 0
-195 -171 -196 197 0
195 171 -196 0
195 -171 196 0
195 -197 198 0
196 -366 168 0
-196 366 0
-196 -168 0
197 427 -177 0
-197 -427 0
-197 177 0
198 -368 199 0
-198 368 0
-198 -199 0
-199 427 429 0
-199 427 428 0
199 -427 0
199 -428 -429 0
-200 -179 198 0
-200 373 -197 0
-200 -179 -197 0
-200 373 198 0
200 197 -198 0
200 -373 179 0
201 202 -203 0
201 -202 203 0
-201 -202 -203 0
-201 202 203 0
202 -379 189 0
202 -379 426 0
-202 379 0
-202 -426 -189 0
203 -426 -190 0
203 426 -204 0
-203 426 204 0
-203 -426 190 0
204 427 -205 0
204 -427 -211 0
-204 -427 211 0
-204 427 205 0
205 428 -206 0
205 -428 -210 0
-205 -428 210 0
-205 428 206 0
206 -429 -23 0
206 429 -207 0
-206 429 207 0
-206 -429 23 0
207 -425 3 -209 0
207 425 3 -208 0
-207 -3 0
-207 -425 209 0
-207 425 208 0
208 426 -127 0
208 -426 -129 0
-208 -426 129 0
-208 426 127 0
209 426 -130 0
-209 -426 0
-209 130 0
210 429 -44 0
210 -429 -67 0
-210 -429 67 0
-210 429 44 0
211 -428 -181 0
211 428 -212 0
-211 428 212 0
-211 -428 181 0
212 429 -80 0
212 -429 -95 0
-212 -429 95 0
-212 429 80 0
213 -376 199 0
213 -376 426 0
-213 376 0
-213 -426 -199 0
214 -426 -197 0
214 426 -215 0
-214 426 215 0
-214 -426 197 0
215 -427 -176 0
215 427 -216 0
-215 427 216 0
-215 -427 176 0
216 428 -66 0
216 -428 -94 0
-216 -428 94 0
-216 428 66 0
-217 218 221 233 0
-217 -219 221 233 0
217 -233 0
217 -221 0
217 -218 219 0
218 -375 426 0
218 -375 427 428 0
-218 375 0
-218 -426 -427 0
-218 -426 -428 0
219 426 -220 0
219 -426 427 -192 0
-219 -426 -427 0
-219 426 220 0
-219 -426 192 0
220 -427 -191 0
220 427 -211 0
-220 427 211 0
-220 -427 191 0
-221 -381 19 0
-221 -17 222 0
-221 -381 -17 0
-221 19 222 0
221 381 -222 0
221 17 -19 0
222 -426 -179 0
222 426 -223 0
-222 426 223 0
-222 -426 179 0
223 427 -224 0
223 -427 -232 0
-223 -427 232 0
-223 427 224 0
224 -428 -206 0
224 428 -225 0
-224 428 225 0
-224 -428 206 0
225 429 -226 0
225 -429 -229 0
-225 -429 229 0
-225 429 226 0
226 -425 3 -228 0
226 425 3 -227 0
-226 -3 0
-226 -425 228 0
-226 425 227 0
227 426 -108 0
227 -426 -110 0
-227 -426 110 0
-227 426 108 0
228 426 -111 0
-228 -426 0
-228 111 0
229 -425 3 -231 0
229 425 3 -230 0
-229 -3 0
-229 -425 231 0
-229 425 230 0
230 426 -118 0
230 -426 -120 0
-230 -426 120 0
-230 426 118 0
231 426 -121 0
-231 -426 0
-231 121 0
232 428 -210 0
232 -428 -212 0
-232 -428 212 0
-232 428 210 0
-233 234 240 241 243 0
-233 234 -240 -241 243 0
233 -243 0
233 -240 241 0
233 -234 0
233 240 -241 0
-234 -169 236 0
-234 167 -235 0
-234 -169 -235 0
-234 167 236 0
234 235 -236 0
234 -167 169 0
235 -380 174 0
235 -380 426 0
-235 380 0
-235 -426 -174 0
236 -426 -175 0
236 426 -237 0
-236 426 237 0
-236 -426 175 0
237 -427 -216 0
237 427 -238 0
-237 427 238 0
-237 -427 216 0
238 -428 -22 0
238 428 -239 0
-238 428 239 0
-238 -428 22 0
239 -429 -207 0
239 429 -229 0
-239 429 229 0
-239 -429 207 0
240 -377 427 0
240 -377 426 0
-240 377 0
-240 -426 -427 0
241 426 -242 0
241 -426 427 -183 0
-241 -426 -427 0
-241 426 242 0
-241 -426 183 0
242 -427 -180 0
242 427 -232 0
-242 427 232 0
-242 -427 180 0
-243 -218 244 0
-243 219 244 0
243 -244 0
243 218 -219 0
-244 -222 235 0
-244 381 -236 0
-244 381 235 0
-244 -222 -236 0
244 -381 222 0
244 -235 236 0
-245 246 288 306 332 0
245 -332 0
245 -246 0
245 -306 0
245 -288 0
-246 247 266 -276 0
-246 247 266 274 0
246 -247 0
246 -266 0
246 -274 276 0
247 248 249 -265 0
247 175 249 -265 0
-247 265 0
-247 -249 0
-247 -175 -248 0
248 -425 426 0
-248 425 0
-248 -426 0
249 425 426 -250 0
249 425 -426 -237 0
-249 -425 0
-249 -426 237 0
-249 426 250 0
250 427 -251 0
250 -427 -259 0
-250 -427 259 0
-250 427 251 0
251 428 -252 0
251 -428 -256 0
-251 -428 256 0
-251 428 252 0
252 429 -253 0
252 -429 -255 0
-252 -429 255 0
-252 429 253 0
253 -119 254 0
-253 119 0
-253 -254 0
-254 425 3 0
254 -425 0
254 -3 0
255 -128 254 0
-255 128 0
-255 -254 0
256 429 -257 0
256 -429 -258 0
-256 -429 258 0
-256 429 257 0
257 -139 254 0
-257 139 0
-257 -254 0
258 -145 254 0
-258 145 0
-258 -254 0
259 428 -260 0
259 -428 -263 0
-259 -428 263 0
-259 428 260 0
260 429 -261 0
260 -429 -262 0
-260 -429 262 0
-260 429 261 0
261 -152 254 0
-261 152 0
-261 -254 0
262 -158 254 0
-262 158 0
-262 -254 0
263 -429 -226 0
263 429 -264 0
-263 429 264 0
-263 -429 226 0
264 -166 254 0
-264 166 0
-264 -254 0
265 -388 425 0
265 -388 426 174 0
-265 388 0
-265 -425 -426 0
-265 -425 -174 0
266 267 268 -272 0
266 192 268 -272 0
-266 272 0
-266 -268 0
-266 -192 -267 0
267 -425 426 427 0
-267 425 0
-267 -427 0
-267 -426 0
268 425 426 -269 0
268 425 -426 -220 0
-268 -425 0
-268 -426 220 0
-268 426 269 0
269 -427 -205 0
269 427 -270 0
-269 427 270 0
-269 -427 205 0
270 -428 -225 0
270 428 -271 0
-270 428 271 0
-270 -428 225 0
271 429 -262 0
271 -429 -264 0
-271 -429 264 0
-271 429 262 0
272 -383 425 0
272 -383 426 273 0
-272 383 0
-272 -425 -426 0
-272 -425 -273 0
-273 427 428 0
273 -427 0
273 -428 0
274 -391 275 0
274 -391 427 428 0
-274 391 0
-274 -427 -275 0
-274 -428 -275 0
275 -425 -426 0
-275 425 0
-275 426 0
276 -425 -219 0
276 425 -277 0
-276 425 277 0
-276 -425 219 0
277 -426 -269 0
277 426 -278 0
-277 426 278 0
-277 -426 269 0
278 427 -279 0
278 -427 -285 0
-278 -427 285 0
-278 427 279 0
279 428 -280 0
279 -428 -283 0
-279 -428 283 0
-279 428 280 0
280 429 -281 0
280 -429 -282 0
-280 -429 282 0
-280 429 281 0
281 -89 254 0
-281 89 0
-281 -254 0
282 -101 254 0
-282 101 0
-282 -254 0
283 -429 -253 0
283 429 -284 0
-283 429 284 0
-283 -429 253 0
284 -109 254 0
-284 109 0
-284 -254 0
285 428 -286 0
285 -428 -287 0
-285 -428 287 0
-285 428 286 0
286 429 -255 0
286 -429 -257 0
-286 -429 257 0
-286 429 255 0
287 429 -258 0
287 -429 -261 0
-287 -429 261 0
-287 429 258 0
-288 -275 289 0
-288 289 -304 0
-288 389 289 0
288 -289 0
288 -389 275 304 0
289 -397 425 290 0
289 -397 -425 222 0
-289 397 0
-289 -425 -222 0
-289 425 -290 0
290 426 -291 0
290 -426 -301 0
-290 -426 301 0
-290 426 291 0
291 -427 -292 0
291 427 -297 0
291 427 -296 0
-291 -427 292 0
-291 427 296 297 0
292 -428 -280 0
292 428 -293 0
-292 428 293 0
-292 -428 280 0
293 429 -294 0
293 -429 -295 0
-293 -429 295 0
-293 429 294 0
294 -60 254 0
-294 60 0
-294 -254 0
295 -76 254 0
-295 76 0
-295 -254 0
-296 -254 0
-296 228 231 0
-296 429 228 0
296 -228 254 0
296 -429 -231 254 0
297 -428 -298 0
-297 428 0
-297 298 0
298 429 -299 0
298 -429 -300 0
-298 -429 300 0
-298 429 299 0
299 -209 254 0
-299 209 0
-299 -254 0
300 -39 254 0
-300 39 0
-300 -254 0
301 427 -302 0
301 -427 -303 0
-301 -427 303 0
-301 427 302 0
302 428 -283 0
302 -428 -286 0
-302 -428 286 0
-302 428 283 0
303 -428 -271 0
303 428 -287 0
-303 428 287 0
-303 -428 271 0
-304 179 305 0
-304 248 305 0
304 -305 0
304 -179 -248 0
305 425 426 -301 0
305 425 -426 -223 0
-305 -425 0
-305 -426 223 0
-305 426 301 0
-306 307 312 317 326 0
306 -326 0
306 -317 0
306 -307 0
306 -312 0
307 -425 241 -308 0
307 425 -308 309 0
-307 308 0
-307 425 -309 0
-307 -425 -241 0
308 -393 427 0
308 -393 425 0
308 -393 426 0
-308 393 0
-308 -425 -426 -427 0
309 426 -310 0
309 -426 -311 0
-309 -426 311 0
-309 426 310 0
310 427 -292 0
310 -427 -302 0
-310 -427 302 0
-310 427 292 0
311 -427 -224 0
311 427 -303 0
-311 427 303 0
-311 -427 224 0
312 267 313 -315 0
312 177 313 -315 0
-312 315 0
-312 -313 0
-312 -177 -267 0
313 425 426 -314 0
313 425 -426 -215 0
-313 -425 0
-313 -426 215 0
-313 426 314 0
314 -427 -238 0
314 427 -259 0
-314 427 259 0
-314 -427 238 0
315 -384 425 0
315 -384 316 -267 0
-315 384 0
-315 -425 -316 0
-315 -425 267 0
316 -428 -429 0
-316 428 0
-316 429 0
317 -425 169 -318 0
317 425 -318 319 0
-317 318 0
-317 425 -319 0
-317 -425 -169 0
318 -390 168 0
318 -390 275 0
-318 390 0
-318 -168 -275 0
319 426 -320 0
319 -426 -324 0
-319 -426 324 0
-319 426 320 0
320 427 -321 0
320 -427 -323 0
-320 -427 323 0
-320 427 321 0
321 -428 -252 0
321 428 -322 0
-321 428 322 0
-321 -428 252 0
322 429 -282 0
322 -429 -284 0
-322 -429 284 0
-322 429 282 0
323 428 -256 0
323 -428 -260 0
-323 -428 260 0
-323 428 256 0
324 -427 -21 0
324 427 -325 0
-324 427 325 0
-324 -427 21 0
325 -428 -239 0
325 428 -263 0
-325 428 263 0
-325 -428 239 0
326 -425 203 -327 0
326 425 -327 328 0
-326 327 0
-326 425 -328 0
-326 -425 -203 0
327 -395 275 0
327 -395 189 0
-327 395 0
-327 -189 -275 0
328 426 -329 0
328 -426 -331 0
-328 -426 331 0
-328 426 329 0
329 -427 -279 0
329 427 -330 0
-329 -427 279 0
-329 427 330 0
-330 428 298 0
-330 -428 293 0
330 -428 -293 0
330 428 -298 0
331 -427 -270 0
331 427 -285 0
-331 427 285 0
-331 -427 270 0
-332 333 339 347 350 0
332 -350 0
332 -347 0
332 -333 0
332 -339 0
333 -425 214 -334 0
333 425 -334 335 0
-333 334 0
-333 425 -335 0
-333 -425 -214 0
334 -392 199 0
334 -392 275 0
-334 392 0
-334 -199 -275 0
335 -426 -314 0
335 426 -336 0
-335 426 336 0
-335 -426 314 0
336 -427 -251 0
336 427 -337 0
-336 427 337 0
-336 -427 251 0
337 -428 -322 0
337 428 -338 0
-337 428 338 0
-337 -428 322 0
338 -429 -281 0
338 429 -295 0
-338 429 295 0
-338 -429 281 0
339 -425 236 -340 0
339 425 -340 341 0
-339 340 0
-339 425 -341 0
-339 -425 -236 0
340 -396 275 0
340 -396 174 0
-340 396 0
-340 -174 -275 0
341 -426 -250 0
341 426 -342 0
-341 426 342 0
-341 -426 250 0
342 -427 -337 0
342 427 -345 0
342 427 -343 0
-342 -427 337 0
-342 427 343 345 0
343 -428 -344 0
-343 428 0
-343 344 0
344 -429 -294 0
344 429 -300 0
-344 429 300 0
-344 -429 294 0
345 429 -346 0
345 -429 -299 0
-345 -429 299 0
-345 429 346 0
346 -231 254 0
-346 231 0
-346 -254 0
347 267 348 -349 0
347 183 348 -349 0
-347 349 0
-347 -348 0
-347 -183 -267 0
348 425 426 -311 0
348 425 -426 -242 0
-348 -425 0
-348 -426 242 0
-348 426 311 0
349 -385 425 0
349 -385 426 427 0
-349 385 0
-349 -425 -426 0
-349 -425 -427 0
-350 351 357 360 363 0
350 -363 0
350 -360 0
350 -351 0
350 -357 0
351 -425 19 -352 0
351 425 -352 353 0
-351 352 0
-351 425 -353 0
-351 -425 -19 0
352 -394 275 0
352 -394 18 0
-352 394 0
-352 -18 -275 0
353 426 -354 0
353 -426 -356 0
-353 -426 356 0
-353 426 354 0
354 -427 -321 0
354 427 -355 0
-354 -427 321 0
-354 427 355 0
-355 428 344 0
-355 -428 338 0
355 -428 -338 0
355 428 -344 0
356 427 -323 0
356 -427 -325 0
-356 -427 325 0
-356 427 323 0
357 248 358 -359 0
357 131 358 -359 0
-357 359 0
-357 -358 0
-357 -131 -248 0
358 425 426 -356 0
358 425 -426 -20 0
-358 -425 0
-358 -426 20 0
-358 426 356 0
359 -386 425 0
359 -386 426 18 0
-359 386 0
-359 -425 -426 0
-359 -425 -18 0
360 248 361 -362 0
360 190 361 -362 0
-360 362 0
-360 -361 0
-360 -190 -248 0
361 425 426 -331 0
361 425 -426 -204 0
-361 -425 0
-361 -426 204 0
-361 426 331 0
362 -387 425 0
362 -387 426 189 0
-362 387 0
-362 -425 -426 0
-362 -425 -189 0
363 267 364 -365 0
363 159 364 -365 0
-363 365 0
-363 -364 0
-363 -159 -267 0
364 425 426 -324 0
364 425 -426 -170 0
-364 -425 0
-364 -426 170 0
-364 426 324 0
365 -382 425 0
365 -382 426 168 0
-365 382 0
-365 -425 -426 0
-365 -425 -168 0
-430 0
2 0

